71
0 26 24 36 34 69 11 53 17 56 
15 49 4 23 45 61 10 58 70 9 
3 60 19 31 25 6 21 41 63 46 
32 28 30 20 54 64 33 68 5 1 
27 38 66 59 65 2 35 47 22 48 
13 7 14 40 55 39 42 29 62 51 
8 12 43 57 16 44 52 50 37 18 
67 
